30
3
20518
613 190 611
true
0.25
14 31 33 36 39 42 26 39 39 50 26 4 30 12 5 20 29 14 39 1 44 16 27 49 38 27 50 40 3 11
42 49 20 23 28 49 3 22 14 20 44 12 40 33 47 35 26 49 45 47 45 24 44 12 31 7 24 13 30 17
10 32 7 49 39 23 40 20 32 30 19 25 37 2 23 38 3 26 35 19 8 13 39 43 8 18 41 28 27 42
-99 -29 3 46 -82 -29 -99 -57 -44 -45 63 -4 -4 -90 16 84 -27 -20 99 69 -95 -3 72 68 51 8 25 -21 -18 73
0 0 0 0 -18 0 0 0 0 0 0 0 0 -46 83 74 55 0 41 0 0 0 -11 0 0 -28 27 0 0 0
0 0 -13 0 0 0 0 -41 0 0 69 -31 0 0 0 0 0 0 19 0 0 0 0 6 44 0 34 7 0
0 0 0 0 0 0 0 0 -64 37 0 0 0 76 0 0 98 0 0 0 -18 0 0 -56 0 0 0 64
0 0 -79 -14 0 0 0 0 -98 0 0 28 0 0 0 0 0 0 -29 0 0 0 -56 0 0 0 0
0 54 0 0 0 0 0 12 0 0 -15 -7 0 0 0 0 0 0 31 0 0 -13 -66 0 84 59
0 0 0 0 -48 -48 0 79 0 -65 32 0 0 0 -45 0 0 0 0 0 0 41 45 0 0
0 0 0 0 0 61 6 0 90 0 0 0 47 0 20 0 0 0 -67 -67 0 0 0 0
0 0 0 4 0 0 54 0 88 0 0 0 0 0 0 0 0 0 -65 0 0 0 73
0 0 -22 0 85 -80 0 85 0 0 -93 0 0 0 0 0 0 0 0 0 0 0
0 95 -68 93 0 0 0 73 0 0 0 0 0 -7 0 0 0 0 -63 0 73
0 0 -21 0 0 -37 0 0 0 0 0 0 0 0 0 0 0 0 -17 0
0 0 0 0 0 0 0 0 29 0 69 0 0 26 0 0 0 -49 0
0 0 0 0 0 23 0 0 -30 0 0 0 0 0 0 -98 0 0
0 0 0 -45 0 0 0 0 0 -63 0 0 0 0 0 0 0
0 0 0 0 0 0 0 0 0 0 25 0 0 0 0 0
0 0 0 0 0 0 -52 0 0 -27 0 0 60 70 0
0 26 0 0 0 0 0 0 0 0 26 0 66 0
0 89 0 0 29 0 0 0 0 0 0 -45 -57
0 -48 -47 0 0 0 0 44 0 0 74 0
0 0 0 0 0 -58 0 0 0 0 20
0 19 0 0 0 0 0 0 0 -71
0 65 0 0 -6 0 2 0 0
0 0 97 0 -96 0 0 0
0 0 0 88 0 0 0
0 -30 -58 0 0 0
0 0 0 0 0
0 0 0 0
0 13 57
0 0
0 0 0 0 0 0 0 0 0 0 -95 0 11 0 -87 0 0 0 28 0 0 20 0 0 0 0 0 0 0
0 -18 0 0 0 -88 0 0 0 0 33 0 15 0 0 21 0 0 0 0 -70 0 0 0 0 0 0 0
0 0 0 0 0 0 0 0 0 -30 0 0 0 16 0 94 0 0 0 0 0 0 0 0 0 0 0
0 0 0 0 0 0 0 0 0 0 39 0 0 -90 -87 0 0 0 0 -47 0 0 0 0 0 1
0 0 -3 0 0 0 0 15 0 -42 0 0 0 0 0 -24 0 93 0 0 0 0 0 0 0
0 0 0 0 -33 13 0 0 0 0 0 0 0 0 -46 91 0 0 0 0 0 0 0 0
0 0 0 50 0 -54 56 0 0 0 -75 0 0 0 -2 0 83 -92 0 0 0 0 0
0 0 0 0 0 0 0 0 0 0 -11 0 0 0 0 0 0 0 0 0 0 10
0 31 0 -21 0 0 45 3 0 0 0 -21 88 0 0 0 0 0 0 0 0
0 0 0 0 0 0 0 0 0 0 0 0 86 16 0 47 -77 0 0 0
0 -61 0 0 0 0 0 0 0 0 -63 0 0 0 0 0 0 0 0
0 75 0 0 50 0 0 0 0 0 0 0 0 0 0 0 0 0
0 -44 0 10 0 54 0 0 41 0 47 0 0 0 0 0 0
0 0 39 0 51 0 0 0 0 0 0 0 0 0 13 0
0 0 24 -59 0 0 -87 0 0 96 0 0 0 14 0
0 -91 0 36 0 -59 0 0 0 0 0 89 0 0
0 0 -22 -34 0 47 0 0 0 0 0 0 0
0 0 0 0 0 0 0 0 0 0 -55 -25
0 0 0 0 0 68 9 0 0 94 0
0 99 0 0 0 0 0 0 0 0
0 -62 0 33 0 0 -24 12 0
0 0 -8 0 0 -10 92 6
0 0 0 0 -80 82 0
0 0 46 0 0 -83
0 0 0 71 0
0 0 0 -68
0 0 86
0 0
0
0 0 0 0 0 0 0 0 39 -30 0 0 0 0 0 98 -19 0 43 0 0 0 0 0 0 0 0 62
0 78 20 0 0 0 53 0 21 0 0 100 0 0 57 0 0 0 0 0 0 0 0 -70 0 0 100
0 0 0 0 85 0 0 0 0 -43 66 0 0 -46 0 0 0 0 0 -16 0 -94 0 0 0 0
0 0 -46 -52 0 68 0 0 0 0 0 0 0 0 0 0 0 17 0 0 0 0 31 0 -77
0 43 0 0 0 0 35 0 0 0 0 0 0 -48 -73 -62 -15 -30 0 0 0 95 0 0
0 0 0 83 0 0 0 0 97 0 0 -14 0 0 0 3 74 36 0 74 0 0 -51
0 -70 23 0 -16 0 0 0 0 41 -16 0 0 -33 -61 0 25 80 0 -60 24 0
0 0 0 0 0 0 0 0 0 97 -44 0 -56 -38 0 0 0 0 38 0 0
0 -93 0 0 0 0 0 0 0 0 0 -28 -96 0 0 -32 0 0 0 9
0 0 0 0 0 0 0 0 0 0 0 0 0 0 53 0 -27 8 0
0 0 66 0 0 40 0 0 -55 39 43 0 0 0 0 -52 0 0
0 -40 0 0 0 0 0 0 0 0 0 0 0 27 0 45 0
0 0 0 0 0 0 0 0 0 0 0 0 0 0 0 0
0 0 0 0 0 0 0 0 0 0 0 0 0 0 -30
0 0 95 0 0 0 0 36 -30 -70 0 0 0 0
0 0 0 -72 0 0 0 13 0 -93 0 0 0
0 0 0 0 0 17 0 0 70 0 0 0
0 0 -77 0 0 0 -79 -31 0 0 0
0 0 0 0 27 -70 0 0 77 0
0 0 0 0 0 0 0 0 0
0 0 0 0 -50 2 -77 3
0 0 93 52 0 0 0
0 0 0 -89 0 0
0 0 -52 0 0
0 0 44 -59
0 0 0
0 0
0
0 0 0 0 0 72 0 0 0 0 79 0 0 0 0 0 0 0 0 -24 0 0 0 0 25 0 0
0 65 0 0 32 0 0 0 0 97 0 53 0 0 0 0 0 -44 0 0 0 0 0 0 73 0
0 0 0 0 0 21 0 0 0 0 27 -8 93 0 0 0 0 0 0 0 -37 0 0 0 0
0 0 0 0 0 0 65 0 0 0 0 -72 -24 0 0 0 0 0 46 0 0 0 24 0
0 9 0 62 0 -85 0 0 0 -2 0 0 -83 0 -23 -2 0 0 -12 0 0 0 -81
0 0 0 0 0 0 0 0 0 0 0 0 0 0 0 0 -92 0 0 0 0 74
0 -27 0 -40 0 69 0 -32 -25 0 -12 -10 0 0 0 22 0 18 0 0 0
0 0 0 0 0 0 0 0 -94 0 0 0 15 0 0 0 -32 -87 0 0
0 0 0 82 0 0 62 0 0 0 0 -6 30 74 0 0 0 0 0
0 7 0 0 0 0 0 64 0 79 0 -56 0 0 0 0 0 0
0 0 0 0 0 0 -62 0 -34 0 -72 -64 33 0 54 0 0
0 0 0 -29 71 0 0 0 0 0 -77 0 57 0 -33 0
0 63 0 0 94 82 0 0 0 0 0 -18 56 0 0
0 0 0 0 -11 0 0 -10 -2 -64 51 0 0 0
0 0 0 0 -91 0 0 0 0 0 0 0 0
0 0 0 0 0 32 0 66 0 95 0 0
0 -88 0 52 0 0 0 0 0 77 0
0 0 74 0 0 0 30 0 0 0
0 0 0 0 0 0 -17 -42 0
0 0 0 0 -98 0 -40 -37
0 0 13 0 0 0 0
0 -3 0 0 0 0
0 0 0 21 0
0 0 0 0
0 0 0
0 0
0
0 55 0 0 0 -4 41 0 0 0 -31 96 -38 49 -20 -44 0 0 0 0 0 0 0 0 0 0
0 0 0 22 0 0 0 0 0 0 0 0 0 0 0 0 0 0 59 0 0 0 0 0 0
0 97 0 0 0 0 0 -93 -34 -96 0 -31 0 0 0 0 0 -54 0 79 -12 0 0 0
0 0 0 -4 0 0 0 0 0 0 0 0 0 0 6 0 0 9 0 0 0 92 0
0 0 0 0 0 0 0 100 0 71 0 0 0 -36 0 -66 0 0 0 0 0 0
0 0 0 0 -36 0 32 29 -24 3 -39 0 0 -55 0 0 0 0 0 0 0
0 0 0 38 68 0 0 0 0 57 0 0 0 0 0 0 0 0 0 0
0 0 43 0 0 0 0 0 0 0 0 8 0 -68 0 -49 0 0 0
0 0 0 0 0 0 0 0 0 0 0 -40 0 50 0 0 0 25
0 0 0 0 -9 32 0 0 0 0 0 0 0 -79 0 0 24
0 0 0 0 1 0 0 34 0 0 -60 0 -15 0 0 0
0 0 -2 0 0 0 0 0 -3 0 0 -44 0 -1 0
0 -100 84 0 0 54 0 0 0 0 0 0 0 0
0 0 0 -57 0 0 0 0 0 -81 0 0 0
0 -11 0 0 78 0 0 0 51 0 0 -81
0 -8 0 58 0 0 34 0 0 0 -59
0 0 0 0 0 0 0 0 -64 0
0 0 68 0 0 0 0 0 0
0 31 0 -65 85 0 -18 0
0 0 0 0 0 0 -31
0 0 0 0 0 0
0 -15 69 0 27
0 0 0 0
0 -94 0
0 0
0
0 0 0 0 0 19 -53 0 0 0 0 0 0 0 0 0 0 0 0 0 -49 0 0 0 0
0 0 0 0 0 0 0 0 0 0 0 28 -28 0 0 0 0 0 0 79 0 -23 0 0
0 0 0 -87 51 0 0 0 2 0 0 10 -36 93 -54 0 30 0 0 0 0 0 0
0 0 0 0 0 -76 0 0 0 0 67 -54 -92 0 0 0 0 0 0 0 82 0
0 92 0 0 0 0 0 0 0 0 0 0 -70 0 95 -67 97 -93 0 0 0
0 0 -52 0 0 0 0 0 0 16 0 52 0 0 0 0 0 0 0 -6
0 75 50 0 0 0 0 0 0 0 70 0 0 0 0 80 54 0 0
0 0 0 0 0 38 0 0 30 24 0 0 0 0 0 -91 0 -44
0 0 0 59 0 -34 0 0 0 0 0 0 0 0 0 0 0
0 0 0 0 0 0 14 0 0 0 0 0 38 0 0 -15
0 0 0 94 0 0 -50 -28 -32 0 0 0 0 0 0
0 0 -37 24 0 0 0 0 -49 0 0 0 69 6
0 58 0 0 -98 84 0 0 0 0 0 0 0
0 0 87 0 0 0 -49 0 0 -57 0 0
0 56 0 0 0 -17 0 0 0 -5 0
0 0 -99 0 0 0 0 0 0 42
0 0 0 0 0 -92 -81 0 0
0 43 -29 0 -48 0 -78 -20
0 0 0 37 0 0 -97
0 -54 0 0 0 0
0 0 0 0 0
0 0 0 0
0 0 69
0 0
0
0 88 -79 -65 0 0 0 38 -79 0 -49 0 0 0 0 0 0 0 82 61 0 24 0 0
0 0 27 31 0 0 0 0 0 0 0 0 0 0 0 13 0 0 0 0 0 0 25
0 0 0 0 0 92 0 0 0 0 0 0 0 0 0 0 0 0 0 0 0 0
0 0 0 24 0 0 13 0 0 0 0 0 0 0 0 0 0 0 0 -41 57
0 0 0 0 0 0 0 0 0 0 -13 0 0 -77 -96 0 0 0 0 0
0 0 0 54 0 -2 0 0 -49 0 0 35 0 61 0 0 -70 -26 0
0 0 65 0 0 0 0 0 0 0 0 0 76 0 -15 81 0 0
0 0 0 0 0 1 0 0 11 0 0 0 0 0 0 75 0
0 0 0 38 0 0 -56 0 0 0 0 -60 0 0 -64 0
0 -34 56 0 -47 0 0 0 0 -68 0 75 33 0 0
0 0 -63 0 17 -82 0 0 0 0 -97 0 0 0
0 0 0 0 0 0 0 0 0 -53 0 0 0
0 11 0 29 0 -22 0 -63 0 0 0 0
0 0 0 -81 0 0 0 0 0 92 91
0 0 0 0 91 0 0 -9 0 80
0 0 0 -57 0 -46 5 0 0
0 0 11 0 0 0 -49 0
0 48 0 0 -67 0 0
0 0 16 0 -74 8
0 0 -32 0 19
0 0 0 0
0 0 0
0 46
0
0 0 0 0 0 0 -78 0 -100 94 78 65 0 0 0 -10 0 51 -35 0 0 0 0
0 0 0 74 0 0 -26 0 84 0 0 0 -83 0 0 0 0 0 0 0 0 0
0 -66 0 0 0 0 0 0 0 0 0 6 78 0 0 -64 0 0 0 0 -91
0 0 0 0 0 0 0 0 0 0 0 0 0 0 0 0 0 0 0 0
0 0 0 0 0 -37 0 0 0 77 0 0 0 0 98 0 0 0 0
0 0 0 0 0 0 3 0 -74 0 72 -42 0 0 -32 0 0 0
0 0 0 0 0 0 0 0 -28 59 0 0 0 0 90 80 0
0 0 0 0 0 0 0 74 0 0 0 0 0 58 -7 0
0 0 0 0 0 0 -51 0 0 0 0 0 0 0 0
0 0 0 0 0 0 0 0 0 0 0 -90 0 0
0 0 0 0 0 0 0 0 19 0 0 94 0
0 0 0 0 0 0 54 0 0 -50 0 1
0 0 0 0 0 0 0 0 0 0 0
0 0 0 -46 0 0 0 0 -49 0
0 42 0 0 0 6 0 91 0
0 0 0 0 -70 0 0 0
0 0 66 0 0 0 0
0 92 0 0 51 2
0 0 -82 -33 -66
0 0 0 14
0 0 0
0 59
0
0 0 0 0 0 0 0 0 85 0 0 16 43 0 8 -94 0 0 0 0 0 0
0 0 0 0 0 0 0 0 0 0 0 0 0 0 0 0 12 0 0 -43 0
0 0 0 0 0 0 0 0 0 64 0 21 0 0 0 0 -93 0 0 0
0 97 0 0 0 0 -53 0 0 0 0 0 0 78 -48 97 0 -1 0
0 0 32 0 0 0 0 0 0 0 0 0 0 0 -15 -68 0 0
0 63 -62 -84 0 0 -75 0 0 0 20 0 0 0 0 0 -32
0 -43 -22 0 0 0 -18 91 0 0 0 0 13 0 0 0
0 62 0 0 0 0 -73 54 83 19 0 0 0 -96 0
0 0 0 0 0 -92 0 0 0 0 0 0 0 54
0 0 0 0 0 -82 0 0 -78 0 0 0 0
0 0 0 19 11 0 0 0 0 0 0 0
0 0 0 0 22 0 46 0 0 0 0
0 -75 0 0 0 -13 0 0 0 0
0 96 10 0 0 0 0 0 92
0 -31 0 0 0 0 0 -34
0 54 0 0 0 0 0
0 0 0 0 0 0
0 -71 -83 0 0
0 0 0 0
0 27 0
0 0
0
0 0 0 0 0 0 2 -75 0 0 0 67 0 0 0 0 0 0 0 -47 -87
0 0 0 44 -15 0 65 -16 46 -2 0 0 0 0 0 0 0 0 0 -76
0 0 0 -46 0 0 0 0 -84 0 0 0 0 0 0 0 0 0 0
0 0 0 0 -80 54 0 0 0 0 0 50 0 -20 0 80 0 0
0 0 0 0 0 -5 -13 0 0 0 0 0 -50 86 0 -81 0
0 0 0 -65 0 0 0 0 -74 0 0 0 80 0 0 89
0 0 0 0 0 -64 57 -12 0 0 -24 34 0 0 0
0 0 0 96 0 0 0 0 0 0 -30 0 0 22
0 0 0 -23 0 26 0 0 0 -30 0 0 0
0 0 0 -97 0 0 0 -78 0 0 0 34
0 0 40 0 0 0 0 0 0 0 0
0 0 0 -64 8 47 0 0 52 59
0 0 0 0 -51 -81 0 0 0
0 21 0 -60 0 0 0 0
0 0 0 0 0 0 0
0 0 0 0 0 0
0 0 73 0 -89
0 0 36 0
0 -29 0
0 0
0
0 0 35 0 0 0 0 0 0 0 0 -32 0 0 0 0 -98 16 0 0
0 0 -5 -76 0 0 0 0 0 37 -79 0 0 -80 0 0 0 8 48
0 -39 0 98 0 0 61 0 0 -92 0 0 0 0 0 0 0 0
0 0 0 0 0 74 -15 0 0 -53 0 0 0 0 0 -36 0
0 41 0 0 0 -73 -68 55 0 0 0 0 -14 0 11 0
0 -41 0 0 0 0 0 -10 0 0 -52 0 -8 0 65
0 -96 0 0 62 31 0 0 0 0 0 0 0 0
0 0 -42 94 0 0 0 0 0 0 0 0 0
0 0 0 0 0 -46 0 -5 -64 0 0 0
0 0 -41 0 0 0 0 -39 0 81 0
0 36 0 0 0 71 0 0 -84 0
0 0 0 0 54 0 0 -56 -85
0 0 -43 35 47 0 0 0
0 0 0 0 0 0 47
0 0 0 0 0 0
0 0 0 -1 0
0 20 0 0
0 -9 -14
0 0
0
0 0 0 60 0 100 0 91 0 0 80 0 0 0 0 0 0 0 -67
0 0 -93 0 -11 -65 0 0 -73 0 75 66 0 0 -52 22 0 0
0 0 0 0 -66 0 0 -37 0 0 32 0 0 -14 0 0 0
0 -54 0 0 0 -87 0 0 0 0 0 0 -53 0 -31 0
0 -95 0 0 0 0 0 0 -98 0 40 0 -61 0 0
0 0 44 0 0 0 0 0 -52 42 0 0 0 0
0 0 53 0 0 0 0 0 0 0 0 0 100
0 0 0 0 0 0 -34 52 0 0 0 43
0 -82 0 0 0 100 0 0 0 0 0
0 0 27 0 0 0 0 -98 0 0
0 -66 0 0 0 0 0 0 0
0 0 70 0 0 0 0 20
0 0 0 0 0 0 0
0 0 0 72 0 0
0 28 0 0 0
0 0 0 0
0 22 0
0 0
0
0 -55 0 0 0 0 34 0 0 0 -18 0 0 0 -41 0 0 0
0 0 0 0 27 0 0 0 0 0 -61 -45 0 0 -66 0 -25
0 86 0 0 0 0 41 0 0 29 0 0 0 0 0 0
0 0 0 0 0 0 0 0 0 0 0 0 52 0 0
0 -47 15 0 0 0 0 0 90 0 -60 -87 0 0
0 41 0 46 0 0 -25 0 -74 0 14 0 0
0 0 0 0 0 0 0 -77 58 0 0 0
0 0 0 0 0 0 0 0 0 0 45
0 0 0 0 50 0 0 0 -65 0
0 0 0 0 -66 0 0 0 0
0 0 37 -80 0 0 0 0
0 0 0 -64 0 -39 0
0 0 43 75 0 0
0 0 0 0 0
0 0 -97 -52
0 0 0
0 0
0
0 -67 0 0 -38 0 0 -59 0 0 -3 0 0 0 0 0 0
0 0 0 53 -50 0 0 0 0 0 0 0 0 0 0 0
0 0 0 52 0 0 0 -25 0 0 0 0 0 -44 52
0 23 0 0 0 10 0 -30 0 0 -61 -53 0 42
0 0 0 0 0 0 0 -34 0 0 -40 -48 0
0 0 0 0 98 0 64 -10 0 0 0 0
0 0 0 0 0 0 0 0 0 0 0
0 43 77 0 0 0 0 0 0 15
0 0 0 0 -53 0 0 0 0
0 0 -23 -75 0 61 0 0
0 0 0 0 0 0 0
0 -66 0 0 0 0
0 0 0 0 0
0 0 -94 0
0 0 0
0 0
0
0 0 0 0 -44 0 0 0 0 0 0 0 0 0 0 0
0 0 -49 0 0 0 0 95 0 0 0 0 0 0 0
0 0 -86 0 0 0 0 0 -39 0 0 0 0 0
0 -92 0 0 20 0 0 0 0 19 0 0 0
0 0 0 0 10 0 0 0 0 -29 0 0
0 -19 17 0 0 0 0 0 -92 0 0
0 0 -89 57 0 -17 21 0 -81 -76
0 -66 0 -28 0 0 0 0 0
0 -94 0 0 0 0 88 9
0 0 0 21 25 0 -58
0 0 0 0 0 0
0 -96 0 0 0
0 -54 0 0
0 45 -22
0 0
0
0 0 0 -91 0 0 0 0 53 0 0 0 0 -32 0
0 23 0 72 0 0 0 -52 0 0 0 0 0 12
0 0 0 0 0 0 0 0 0 0 0 0 -88
0 17 0 0 0 0 0 0 0 0 0 -40
0 0 0 0 0 0 0 9 0 0 0
0 -97 0 0 -16 0 0 0 0 0
0 0 0 0 0 0 0 0 0
0 -99 0 0 -76 0 0 0
0 0 0 0 0 0 0
0 0 0 0 0 0
0 30 0 0 0
0 0 0 0
0 -72 0
0 0
0
0 79 -82 0 0 0 -45 0 0 0 0 0 0 0
0 0 0 0 0 0 0 0 0 -6 27 0 0
0 0 0 0 63 0 0 0 56 0 0 0
0 0 0 0 0 0 0 0 0 0 0
0 0 62 0 0 0 0 61 0 0
0 0 0 0 0 0 94 0 0
0 0 0 0 0 0 0 96
0 0 0 -25 0 0 98
0 0 -64 -85 0 0
0 0 0 0 58
0 0 0 0
0 0 0
0 0
0
0 -14 0 0 0 0 74 -22 0 0 0 0 4
0 0 0 0 0 14 0 0 -22 0 0 -43
0 0 0 0 0 0 0 0 0 -100 0
0 0 0 0 0 0 0 0 0 0
0 69 0 0 0 0 0 -35 0
0 0 0 0 0 0 -63 0
0 13 0 0 0 0 0
0 0 0 0 0 -40
0 0 -93 0 -97
0 18 0 0
0 0 0
0 15
0
0 0 0 0 0 0 0 0 0 0 0 -18
0 81 0 -81 -78 -36 0 0 0 0 0
0 -70 86 0 0 43 0 0 0 0
0 -56 0 -59 0 0 0 0 0
0 0 0 0 0 0 51 0
0 44 -79 0 0 -88 -13
0 0 -70 0 0 -30
0 0 0 0 0
0 82 0 0
0 0 0
0 0
0
0 0 0 91 -78 -91 -2 0 0 55 0
0 61 -30 -28 62 0 0 0 0 0
0 55 0 34 0 0 0 52 -82
0 0 0 0 0 0 0 31
0 0 0 6 0 0 0
0 0 0 63 0 0
0 0 0 0 0
0 -31 0 0
0 0 0
0 0
0
0 0 30 0 0 0 0 0 0 0
0 0 0 -42 94 24 0 0 0
0 0 0 6 0 -36 0 0
0 0 0 70 0 0 14
0 0 0 0 0 0
0 0 -77 0 -1
0 0 0 0
0 0 0
0 19
0
0 -22 0 0 0 0 0 0 -74
0 0 0 0 0 -100 0 0
0 0 -19 0 0 0 0
0 0 6 0 88 -23
0 0 0 0 -85
0 0 40 -85
0 0 -64
0 20
0
0 0 0 0 0 0 49 0
0 0 -8 0 0 0 0
0 0 0 0 0 0
0 0 0 5 83
0 0 0 86
0 0 -96
0 0
0
0 0 -96 0 0 0 0
0 0 0 0 0 0
0 0 0 19 49
0 0 0 0
0 -42 0
0 18
0
0 -46 0 0 0 0
0 0 -75 0 0
0 93 0 -55
0 0 0
0 0
0
0 -7 0 0 0
0 0 0 0
0 0 0
0 0
0
0 -19 0 0
0 0 0
0 0
0
0 0 0
0 0
0
0 0
0
0
419 125 784 446 235 166 341 422 -208 -531 -174 324 115 -1178 -134 1059 -488 -748 994 -173 -558 -625 -43 -210 -194 -1170 -1189 -722 324 4
27.26825396825397 3.4965094908931316 58.31919191919192 13.627411351013835 6.8147130647130645 4.8525091195898655 45.10235042735042 17.034110334110334 -8.896825396825397 -18.290000000000003 -6.601582627898416 40.32 3.272147147147147 -240.95454545454547 -11.825716928769658 37.02518796992481 -66.08782788093133 -32.48770277341706 25.325356125356127 -61.92870474057484 -31.61060606060606 -37.727029914529915 -1.2241431408098076 -8.889811738648946 -11.871109224674589 -91.82539682539682 -34.10722222222222 -33.12472527472528 43.6 0.23138952550717254
